
#(C) 2014 by Fachinformationszentrum Karlsruhe.  All rights reserved.
data_187640-ICSD
_database_code_ICSD 187640
_audit_creation_date 2013-08-01
_chemical_name_systematic Graphite
_chemical_formula_structural C
_chemical_formula_sum C1
_chemical_name_structure_type Graphite(2H)
_chemical_name_mineral 'Graphite 2H'
_exptl_crystal_density_diffrn 2.32
_publ_section_title
'Hydrogenated K4 carbon: A new stable cubic gauche structure of carbon hydride'
loop_
_citation_id
_citation_journal_full
_citation_year
_citation_journal_volume
_citation_page_first
_citation_page_last
_citation_journal_id_ASTM
primary 'Journal of Chemical Physics' 2013 138 024702-1 024702-5 JCPSA6
loop_
_publ_author_name
'Lian, Chao-Sheng'
'Wang, Xin-Quan'
'Wang, Jian-Tao'
_cell_length_a 2.446
_cell_length_b 2.446
_cell_length_c 6.648
_cell_angle_alpha 90.
_cell_angle_beta 90.
_cell_angle_gamma 120.
_cell_volume 34.45
_cell_formula_units_Z 4
_symmetry_space_group_name_H-M 'P 63/m m c'
_symmetry_Int_Tables_number 194
loop_
_symmetry_equiv_pos_site_id
_symmetry_equiv_pos_as_xyz
1 'x, x-y, -z+1/2'
2 '-x+y, y, -z+1/2'
3 '-y, -x, -z+1/2'
4 '-x+y, -x, -z+1/2'
5 '-y, x-y, -z+1/2'
6 'x, y, -z+1/2'
7 '-x, -x+y, z+1/2'
8 'x-y, -y, z+1/2'
9 'y, x, z+1/2'
10 'x-y, x, z+1/2'
11 'y, -x+y, z+1/2'
12 '-x, -y, z+1/2'
13 '-x, -x+y, -z'
14 'x-y, -y, -z'
15 'y, x, -z'
16 'x-y, x, -z'
17 'y, -x+y, -z'
18 '-x, -y, -z'
19 'x, x-y, z'
20 '-x+y, y, z'
21 '-y, -x, z'
22 '-x+y, -x, z'
23 '-y, x-y, z'
24 'x, y, z'
loop_
_atom_type_symbol
_atom_type_oxidation_number
C0+ 0
loop_
_atom_site_label
_atom_site_type_symbol
_atom_site_symmetry_multiplicity
_atom_site_Wyckoff_symbol
_atom_site_fract_x
_atom_site_fract_y
_atom_site_fract_z
_atom_site_B_iso_or_equiv
_atom_site_occupancy
_atom_site_attached_hydrogens
C1 C0+ 2 b 0 0 0.25 . 1. 0
C2 C0+ 2 c 0.3333 0.6667 0.25 . 1. 0
#End of TTdata_187640-ICSD